MARKOV
531
 2 2 2 2 2 2 2 2 2 2 2 2 2 2 2 2 2 2 2 2 2 2 2 2 2 2 2 2 2 2 2 2 2 2 2 2 2 2 2 2 2 2 2 2 2 2 2 2 2 2 2 2 2 2 2 2 2 2 2 2 2 2 2 2 2 2 2 2 2 2 2 2 2 2 2 2 2 2 2 2 2 2 2 2 2 2 2 2 2 2 2 2 2 2 2 2 2 2 2 2 2 2 2 2 2 2 2 2 2 2 2 2 2 2 2 2 2 2 2 2 2 2 2 2 2 2 2 2 2 2 2 2 2 2 2 2 2 2 2 2 2 2 2 2 2 2 2 2 2 2 2 2 2 2 2 2 2 2 2 2 2 2 2 2 2 2 2 2 2 2 2 2 2 2 2 2 2 2 2 2 2 2 2 2 2 2 2 2 2 2 2 2 2 2 2 2 2 2 2 2 2 2 2 2 2 2 2 2 2 2 2 2 2 2 2 2 2 2 2 2 2 2 2 2 2 2 2 2 2 2 2 2 2 2 2 2 2 2 2 2 2 2 2 2 2 2 2 2 2 2 2 2 2 2 2 2 2 2 2 2 2 2 2 2 2 2 2 2 2 2 2 2 2 2 2 2 2 2 2 2 2 2 2 2 2 2 2 2 2 2 2 2 2 2 2 2 2 2 2 2 2 2 2 2 2 2 2 2 2 2 2 2 2 2 2 2 2 2 2 2 2 2 2 2 2 2 2 2 2 2 2 2 2 2 2 2 2 2 2 2 2 2 2 2 2 2 2 2 2 2 2 2 2 2 2 2 2 2 2 2 2 2 2 2 2 2 2 2 2 2 2 2 2 2 2 2 2 2 2 2 2 2 2 2 2 2 2 2 2 2 2 2 2 2 2 2 2 2 2 2 2 2 2 2 2 2 2 2 2 2 2 2 2 2 2 2 2 2 2 2 2 2 2 2 2 2 2 2 2 2 2 2 2 2 2 2 2 2 2 2 2 2 2 2 2 2 2 2 2 2 2 2 2 2 2 2 2 2 2 2 2 2 2 2 2 2 2 2 2 2 2 2 2 2 2 2 2 2 2 2 2 2 2 2 2 2 2 2 2 2 2 2 2 2 2 2 2 2 2 2 2 2 2 2 2 2 2 2 2 2 2 2 2 2 2 2 2 2 2 2 2 2 2 2 2 2 2 2 2 2 2
535
3	94 218 530 
3	59 529 530 
3	33 528 529 
3	18 527 528 
3	50 526 527 
3	188 525 526 
3	29 524 525 
3	68 523 524 
3	92 522 523 
3	1 521 522 
3	200 520 521 
3	65 519 520 
3	170 518 519 
3	192 517 518 
3	15 516 517 
3	175 515 516 
3	79 514 515 
3	36 513 514 
3	3 512 513 
3	176 511 512 
3	93 510 511 
3	71 509 510 
3	165 508 509 
3	11 507 508 
3	196 506 507 
3	70 505 506 
3	31 504 505 
3	99 503 504 
3	151 502 503 
3	111 501 502 
3	45 500 501 
3	49 499 500 
3	28 498 499 
3	206 497 498 
3	186 496 497 
3	155 495 496 
3	205 494 495 
3	182 493 494 
3	134 492 493 
3	108 491 492 
1	491 
3	83 101 490 
3	167 489 490 
3	0 488 489 
3	141 487 488 
3	124 486 487 
3	33 485 486 
3	158 484 485 
3	145 483 484 
3	89 482 483 
3	85 481 482 
3	78 480 481 
3	172 479 480 
3	7 478 479 
3	35 477 478 
3	216 476 477 
3	201 475 476 
3	149 474 475 
3	24 473 474 
3	122 472 473 
3	187 471 472 
3	62 470 471 
3	207 469 470 
3	148 468 469 
3	40 467 468 
3	127 466 467 
3	209 465 466 
3	6 464 465 
3	73 463 464 
3	57 462 463 
3	72 461 462 
3	135 460 461 
3	123 459 460 
3	139 458 459 
3	48 457 458 
3	17 456 457 
3	137 455 456 
3	133 454 455 
3	184 453 454 
3	147 452 453 
3	199 451 452 
3	119 450 451 
3	69 449 450 
3	13 448 449 
3	179 447 448 
3	150 446 447 
3	91 445 446 
3	204 444 445 
3	198 443 444 
3	114 442 443 
3	109 441 442 
3	125 440 441 
3	181 439 440 
3	104 438 439 
3	76 437 438 
3	168 436 437 
3	162 435 436 
3	163 434 435 
3	10 433 434 
3	8 432 433 
3	5 431 432 
3	39 430 431 
3	67 429 430 
3	185 428 429 
3	140 427 428 
3	116 426 427 
3	126 425 426 
3	212 424 425 
3	132 423 424 
3	96 422 423 
3	190 421 422 
3	90 420 421 
3	130 419 420 
3	27 418 419 
3	138 417 418 
3	171 416 417 
3	117 415 416 
1	415 
3	160 167 414 
3	53 413 414 
3	68 412 413 
3	192 411 412 
3	89 410 411 
3	32 409 410 
3	36 408 409 
3	216 407 408 
3	70 406 407 
3	207 405 406 
3	142 404 405 
3	118 403 404 
3	86 402 403 
3	28 401 402 
3	106 400 401 
3	97 399 400 
3	22 398 399 
3	161 397 398 
3	184 396 397 
3	199 395 396 
3	179 394 395 
3	150 393 394 
3	114 392 393 
3	198 391 392 
3	204 390 391 
3	188 389 390 
3	60 388 389 
3	194 387 388 
3	181 386 387 
3	74 385 386 
3	87 384 385 
3	77 383 384 
3	185 382 383 
3	67 381 382 
3	42 380 381 
3	12 379 380 
3	81 378 379 
3	112 377 378 
3	182 376 377 
3	82 375 376 
3	191 374 375 
3	153 373 374 
3	30 372 373 
3	56 371 372 
3	158 370 371 
3	84 369 370 
3	214 368 369 
3	65 367 368 
3	58 366 367 
3	172 365 366 
3	85 364 365 
3	37 363 364 
3	201 362 363 
3	120 361 362 
3	195 360 361 
3	62 359 360 
3	63 358 359 
3	127 357 358 
3	57 356 357 
3	73 355 356 
3	9 354 355 
3	107 353 354 
3	49 352 353 
3	48 351 352 
3	208 350 351 
3	178 349 350 
3	173 348 349 
3	146 347 348 
3	19 346 347 
3	46 345 346 
3	4 344 345 
3	147 343 344 
3	44 342 343 
3	110 341 342 
3	119 340 341 
3	55 339 340 
3	69 338 339 
3	152 337 338 
3	16 336 337 
3	75 335 336 
3	125 334 335 
3	95 333 334 
3	104 332 333 
3	175 331 332 
3	197 330 331 
3	162 329 330 
3	163 328 329 
3	66 327 328 
3	8 326 327 
3	131 325 326 
3	51 324 325 
3	45 323 324 
3	132 322 323 
3	129 321 322 
3	96 320 321 
3	90 319 320 
3	203 318 319 
3	80 317 318 
3	171 316 317 
3	144 315 316 
3	101 314 315 
3	105 313 314 
3	83 312 313 
3	43 311 312 
3	0 310 311 
3	141 309 310 
3	202 308 309 
3	33 307 308 
3	50 306 307 
3	29 305 306 
3	145 304 305 
3	200 303 304 
3	7 302 303 
3	35 301 302 
3	169 300 301 
3	210 299 300 
3	24 298 299 
3	187 297 298 
3	40 296 297 
3	6 295 296 
3	209 294 295 
3	128 293 294 
3	135 292 293 
3	72 291 292 
3	123 290 291 
3	159 289 290 
3	52 288 289 
3	98 287 288 
3	189 286 287 
3	157 285 286 
3	193 284 285 
3	13 283 284 
3	54 282 283 
3	92 281 282 
3	154 280 281 
3	211 279 280 
3	136 278 279 
3	26 277 278 
3	102 276 277 
3	177 275 276 
3	76 274 275 
3	121 273 274 
3	156 272 273 
3	143 271 272 
3	140 270 271 
3	116 269 270 
3	113 268 269 
3	126 267 268 
3	100 266 267 
3	61 265 266 
3	212 264 265 
3	155 263 264 
3	190 262 263 
3	27 261 262 
3	166 260 261 
3	88 259 260 
3	180 258 259 
3	183 257 258 
3	103 256 257 
3	124 255 256 
3	217 254 255 
3	164 253 254 
3	2 252 253 
3	20 251 252 
3	25 250 251 
3	23 249 250 
3	78 248 249 
3	149 247 248 
3	122 246 247 
3	196 245 246 
3	148 244 245 
3	14 243 244 
3	139 242 243 
3	213 241 242 
3	174 240 241 
3	17 239 240 
3	137 238 239 
3	133 237 238 
3	115 236 237 
3	91 235 236 
3	215 234 235 
3	109 233 234 
3	64 232 233 
3	41 231 232 
3	38 230 231 
3	34 229 230 
3	168 228 229 
3	11 227 228 
3	10 226 227 
3	5 225 226 
3	39 224 225 
3	21 223 224 
3	130 222 223 
3	138 221 222 
3	47 220 221 
3	117 219 220 
1	219 
1	160 
1	59 
1	167 
1	53 
1	68 
1	192 
1	89 
1	32 
1	36 
1	216 
1	70 
1	207 
1	118 
1	142 
1	86 
1	28 
1	97 
1	106 
1	22 
1	184 
1	161 
1	199 
1	179 
1	150 
1	204 
1	198 
1	114 
1	188 
1	60 
1	194 
1	74 
1	181 
1	87 
1	79 
1	77 
1	67 
1	185 
1	42 
1	12 
1	186 
1	81 
1	112 
1	182 
1	82 
1	18 
1	191 
1	30 
1	153 
1	56 
1	214 
1	84 
1	158 
1	65 
1	58 
1	85 
1	172 
1	37 
1	176 
1	201 
1	71 
1	195 
1	120 
1	63 
1	62 
1	127 
1	73 
1	57 
1	9 
1	107 
1	49 
1	48 
1	208 
1	178 
1	173 
1	146 
1	19 
1	46 
1	4 
1	147 
1	44 
1	110 
1	119 
1	218 
1	55 
1	69 
1	152 
1	16 
1	75 
1	125 
1	175 
1	95 
1	104 
1	197 
1	162 
1	163 
1	66 
1	8 
1	131 
1	51 
1	151 
1	45 
1	132 
1	129 
1	96 
1	90 
1	203 
1	80 
1	171 
1	144 
1	94 
1	101 
1	105 
1	83 
1	43 
1	0 
1	141 
1	202 
1	33 
1	50 
1	29 
1	200 
1	145 
1	7 
1	35 
1	169 
1	210 
1	93 
1	24 
1	187 
1	40 
1	6 
1	209 
1	128 
1	135 
1	72 
1	123 
1	159 
1	206 
1	52 
1	98 
1	189 
1	157 
1	108 
1	193 
1	13 
1	54 
1	92 
1	154 
1	211 
1	136 
1	26 
1	102 
1	177 
1	76 
1	121 
1	156 
1	143 
1	140 
1	116 
1	113 
1	111 
1	126 
1	100 
1	61 
1	212 
1	155 
1	190 
1	27 
1	166 
1	88 
1	180 
1	183 
1	103 
1	124 
1	217 
1	164 
1	2 
1	20 
1	25 
1	23 
1	78 
1	3 
1	149 
1	165 
1	122 
1	196 
1	148 
1	14 
1	31 
1	213 
1	139 
1	174 
1	17 
1	137 
1	133 
1	115 
1	205 
1	134 
1	215 
1	91 
1	109 
1	64 
1	1 
1	38 
1	41 
1	170 
1	15 
1	34 
1	168 
1	11 
1	10 
1	5 
1	39 
1	99 
1	21 
1	130 
1	138 
1	47 
1	117 
0	

8
 1 0 0.8 0.2 0 1 0 1
8
 1 0 0 1 0.5 0 0.5 1
8
 1 0 0 1 0.5 0 0.5 1
8
 1 0 0 1 0.5 0 0.5 1
8
 1 0 0 1 0.8 0 0.2 1
8
 1 0 0 1 0.5 0 0.5 1
8
 1 0 0 1 0.5 0 0.5 1
8
 1 0 0 1 0.4 0 0.6 1
8
 1 0 0 1 0.3 0 0.7 1
8
 1 0 0 1 0.39 0 0.61 1
8
 1 0 0 1 0.4 0 0.6 1
8
 1 0 0 1 0.5 0 0.5 1
8
 1 0 0 1 0.89 0 0.11 1
8
 1 0 0 1 0.5 0 0.5 1
8
 1 0 0 1 0.01 0 0.99 1
8
 1 0 0 1 0.5 0 0.5 1
8
 1 0 0 1 0.7 0 0.3 1
8
 1 0 0 1 0.5 0 0.5 1
8
 1 0 0 1 0.1 0 0.9 1
8
 1 0 0 1 0.5 0 0.5 1
8
 1 0 0 1 0.89 0 0.11 1
8
 1 0 0 1 0 0 1 1
8
 1 0 0 1 0.5 0 0.5 1
8
 1 0 0 1 0.5 0 0.5 1
8
 1 0 0 1 0.5 0 0.5 1
8
 1 0 0 1 0.5 0 0.5 1
8
 1 0 0 1 0.1 0 0.9 1
8
 1 0 0 1 0.8 0 0.2 1
8
 1 0 0 1 0.7 0 0.3 1
8
 1 0 0 1 0.5 0 0.5 1
8
 1 0 0 1 0.8 0 0.2 1
8
 1 0 0 1 0.5 0 0.5 1
8
 1 0 0 1 0.4 0 0.6 1
8
 1 0 0 1 0.5 0 0.5 1
8
 1 0 0 1 0.5 0 0.5 1
8
 1 0 0 1 0.5 0 0.5 1
8
 1 0 0 1 0.7 0 0.3 1
8
 1 0 0 1 0.5 0 0.5 1
8
 1 0 0 1 0 0 1 1
8
 1 0 0 1 0.9 0 0.1 1
2
 0.03 1
8
 1 0 0 1 0 1 0 1
8
 1 0 0 1 0 0 1 1
8
 1 0 0 1 0 0 1 1
8
 1 0 0 1 0 0 1 1
8
 1 0 0 1 0 0 1 1
8
 1 0 0 1 0 0 1 1
8
 1 0 0 1 0 0 1 1
8
 1 0 0 1 0 0 1 1
8
 1 0 0 1 0 0 1 1
8
 1 0 0 1 0 0 1 1
8
 1 0 0 1 0 0 1 1
8
 1 0 0 1 0 0 1 1
8
 1 0 0 1 0 0 1 1
8
 1 0 0 1 0 0 1 1
8
 1 0 0 1 0 0 1 1
8
 1 0 0 1 0 0 1 1
8
 1 0 0 1 0 0 1 1
8
 1 0 0 1 0 0 1 1
8
 1 0 0 1 0 0 1 1
8
 1 0 0 1 0 0 1 1
8
 1 0 0 1 0 0 1 1
8
 1 0 0 1 0 0 1 1
8
 1 0 0 1 0 0 1 1
8
 1 0 0 1 0 0 1 1
8
 1 0 0 1 0 0 1 1
8
 1 0 0 1 0 0 1 1
8
 1 0 0 1 0 0 1 1
8
 1 0 0 1 0 0 1 1
8
 1 0 0 1 0 0 1 1
8
 1 0 0 1 0 0 1 1
8
 1 0 0 1 0 0 1 1
8
 1 0 0 1 0 0 1 1
8
 1 0 0 1 0 0 1 1
8
 1 0 0 1 0 0 1 1
8
 1 0 0 1 0 0 1 1
8
 1 0 0 1 0 0 1 1
8
 1 0 0 1 0 0 1 1
8
 1 0 0 1 0 0 1 1
8
 1 0 0 1 0 0 1 1
8
 1 0 0 1 0 0 1 1
8
 1 0 0 1 0 0 1 1
8
 1 0 0 1 0 0 1 1
8
 1 0 0 1 0 0 1 1
8
 1 0 0 1 0 0 1 1
8
 1 0 0 1 0 0 1 1
8
 1 0 0 1 0 0 1 1
8
 1 0 0 1 0 0 1 1
8
 1 0 0 1 0 0 1 1
8
 1 0 0 1 0 0 1 1
8
 1 0 0 1 0 0 1 1
8
 1 0 0 1 0 0 1 1
8
 1 0 0 1 0 0 1 1
8
 1 0 0 1 0 0 1 1
8
 1 0 0 1 0 0 1 1
8
 1 0 0 1 0 0 1 1
8
 1 0 0 1 0 0 1 1
8
 1 0 0 1 0 0 1 1
8
 1 0 0 1 0 0 1 1
8
 1 0 0 1 0 0 1 1
8
 1 0 0 1 0 0 1 1
8
 1 0 0 1 0 0 1 1
8
 1 0 0 1 0 0 1 1
8
 1 0 0 1 0 0 1 1
8
 1 0 0 1 0 0 1 1
8
 1 0 0 1 0 0 1 1
8
 1 0 0 1 0 0 1 1
8
 1 0 0 1 0 0 1 1
8
 1 0 0 1 0 0 1 1
8
 1 0 0 1 0 0 1 1
8
 1 0 0 1 0 0 1 1
8
 1 0 0 1 0 0 1 1
8
 1 0 0 1 0 0 1 1
8
 1 0 0 1 0 0 1 1
8
 1 0 0 1 0 0 1 1
8
 1 0 0 1 0 0 1 1
8
 1 0 0 1 0 0 1 1
2
 0.03 1
8
 1 0 0 1 0.9 0.1 0 1
8
 1 0 0 1 0.2 0 0.8 1
8
 1 0 0 1 0.4 0 0.6 1
8
 1 0 0 1 0.5 0 0.5 1
8
 1 0 0 1 0 0 1 1
8
 1 0 0 1 0.9 0 0.1 1
8
 1 0 0 1 0.5 0 0.5 1
8
 1 0 0 1 0.89 0 0.11 1
8
 1 0 0 1 0.5 0 0.5 1
8
 1 0 0 1 0 0 1 1
8
 1 0 0 1 0.89 0 0.11 1
8
 1 0 0 1 0.5 0 0.5 1
8
 1 0 0 1 0.2 0 0.8 1
8
 1 0 0 1 0.4 0 0.6 1
8
 1 0 0 1 0.1 0 0.9 1
8
 1 0 0 1 0.5 0 0.5 1
8
 1 0 0 1 0.5 0 0.5 1
8
 1 0 0 1 0.1 0 0.9 1
8
 1 0 0 1 0 0 1 1
8
 1 0 0 1 0.5 0 0.5 1
8
 1 0 0 1 0.01 0 0.99 1
8
 1 0 0 1 0 0 1 1
8
 1 0 0 1 0 0 1 1
8
 1 0 0 1 0 0 1 1
8
 1 0 0 1 0 0 1 1
8
 1 0 0 1 0.5 0 0.5 1
8
 1 0 0 1 0.9 0 0.1 1
8
 1 0 0 1 0.5 0 0.5 1
8
 1 0 0 1 0 0 1 1
8
 1 0 0 1 0.5 0 0.5 1
8
 1 0 0 1 0.9 0 0.1 1
8
 1 0 0 1 0.5 0 0.5 1
8
 1 0 0 1 0.1 0 0.9 1
8
 1 0 0 1 0 0 1 1
8
 1 0 0 1 0.1 0 0.9 1
8
 1 0 0 1 0.5 0 0.5 1
8
 1 0 0 1 0.9 0 0.1 1
8
 1 0 0 1 0.5 0 0.5 1
8
 1 0 0 1 0.5 0 0.5 1
8
 1 0 0 1 0.9 0 0.1 1
8
 1 0 0 1 0.09 0 0.91 1
8
 1 0 0 1 0.5 0 0.5 1
8
 1 0 0 1 0.1 0 0.9 1
8
 1 0 0 1 0.5 0 0.5 1
8
 1 0 0 1 0.5 0 0.5 1
8
 1 0 0 1 0.9 0 0.1 1
8
 1 0 0 1 0.09 0 0.91 1
8
 1 0 0 1 0.5 0 0.5 1
8
 1 0 0 1 0.5 0 0.5 1
8
 1 0 0 1 0 0 1 1
8
 1 0 0 1 0 0 1 1
8
 1 0 0 1 0.5 0 0.5 1
8
 1 0 0 1 0 0 1 1
8
 1 0 0 1 0.5 0 0.5 1
8
 1 0 0 1 0.1 0 0.9 1
8
 1 0 0 1 0.5 0 0.5 1
8
 1 0 0 1 0.57 0 0.43 1
8
 1 0 0 1 0 0 1 1
8
 1 0 0 1 0 0 1 1
8
 1 0 0 1 0 0 1 1
8
 1 0 0 1 0.5 0 0.5 1
8
 1 0 0 1 0.5 0 0.5 1
8
 1 0 0 1 0.9 0 0.1 1
8
 1 0 0 1 0 0 1 1
8
 1 0 0 1 0.5 0 0.5 1
8
 1 0 0 1 0.1 0 0.9 1
8
 1 0 0 1 0.5 0 0.5 1
8
 1 0 0 1 0.1 0 0.9 1
8
 1 0 0 1 0.5 0 0.5 1
8
 1 0 0 1 0.4 0 0.6 1
8
 1 0 0 1 0.5 0 0.5 1
8
 1 0 0 1 0 0 1 1
8
 1 0 0 1 0.5 0 0.5 1
8
 1 0 0 1 0.9 0 0.1 1
8
 1 0 0 1 0 0 1 1
8
 1 0 0 1 0.5 0 0.5 1
8
 1 0 0 1 0 0 1 1
8
 1 0 0 1 0.89 0 0.11 1
8
 1 0 0 1 0.5 0 0.5 1
8
 1 0 0 1 0.5 0 0.5 1
8
 1 0 0 1 0 0 1 1
8
 1 0 0 1 0.5 0 0.5 1
8
 1 0 0 1 0 0 1 1
8
 1 0 0 1 0.4 0 0.6 1
8
 1 0 0 1 0.5 0 0.5 1
8
 1 0 0 1 0 0 1 1
8
 1 0 0 1 0 0 1 1
8
 1 0 0 1 0.1 0 0.9 1
8
 1 0 0 1 0.6 0 0.4 1
8
 1 0 0 1 0.5 0 0.5 1
8
 1 0 0 1 0.1 0 0.9 1
8
 1 0 0 1 0.4 0 0.6 1
8
 1 0 0 1 0 0 1 1
8
 1 0 0 1 0.5 0 0.5 1
8
 1 0 0 1 0 0 1 1
8
 1 0 0 1 0 0 1 1
8
 1 0 0 1 0.1 0 0.9 1
8
 1 0 0 1 0.59 0 0.41 1
8
 1 0 0 1 0 0 1 1
8
 1 0 0 1 0.4 0 0.6 1
8
 1 0 0 1 0 0 1 1
8
 1 0 0 1 0.5 0 0.5 1
8
 1 0 0 1 0.9 0 0.1 1
8
 1 0 0 1 0.5 0 0.5 1
8
 1 0 0 1 0 0 1 1
8
 1 0 0 1 0 0 1 1
8
 1 0 0 1 0.9 0 0.1 1
8
 1 0 0 1 0.6 0 0.4 1
8
 1 0 0 1 0.4 0 0.6 1
8
 1 0 0 1 0.5 0 0.5 1
8
 1 0 0 1 0.1 0 0.9 1
8
 1 0 0 1 0.4 0 0.6 1
8
 1 0 0 1 0 0 1 1
8
 1 0 0 1 0 0 1 1
8
 1 0 0 1 0.5 0 0.5 1
8
 1 0 0 1 0.09 0 0.91 1
8
 1 0 0 1 0 0 1 1
8
 1 0 0 1 0 0 1 1
8
 1 0 0 1 0.5 0 0.5 1
8
 1 0 0 1 0 0 1 1
8
 1 0 0 1 0 0 1 1
8
 1 0 0 1 0.89 0 0.11 1
8
 1 0 0 1 0 0 1 1
8
 1 0 0 1 0 0 1 1
8
 1 0 0 1 0 0 1 1
8
 1 0 0 1 0.5 0 0.5 1
8
 1 0 0 1 0.5 0 0.5 1
8
 1 0 0 1 0.5 0 0.5 1
8
 1 0 0 1 0.5 0 0.5 1
8
 1 0 0 1 0.5 0 0.5 1
8
 1 0 0 1 0.5 0 0.5 1
8
 1 0 0 1 0 0 1 1
8
 1 0 0 1 0.5 0 0.5 1
8
 1 0 0 1 0.4 0 0.6 1
8
 1 0 0 1 0.5 0 0.5 1
8
 1 0 0 1 0.7 0 0.3 1
8
 1 0 0 1 0.5 0 0.5 1
8
 1 0 0 1 0.89 0 0.11 1
8
 1 0 0 1 0.5 0 0.5 1
8
 1 0 0 1 0.9 0 0.1 1
8
 1 0 0 1 0 0 1 1
8
 1 0 0 1 0.9 0 0.1 1
8
 1 0 0 1 0.5 0 0.5 1
8
 1 0 0 1 0.5 0 0.5 1
8
 1 0 0 1 0 0 1 1
8
 1 0 0 1 0 0 1 1
8
 1 0 0 1 0.75 0 0.25 1
8
 1 0 0 1 0 0 1 1
8
 1 0 0 1 0.09 0 0.91 1
8
 1 0 0 1 0.5 0 0.5 1
8
 1 0 0 1 0 0 1 1
8
 1 0 0 1 0.5 0 0.5 1
8
 1 0 0 1 0 0 1 1
8
 1 0 0 1 0 0 1 1
8
 1 0 0 1 0.9 0 0.1 1
8
 1 0 0 1 0.7 0 0.3 1
8
 1 0 0 1 0.4 0 0.6 1
8
 1 0 0 1 0.5 0 0.5 1
8
 1 0 0 1 0.1 0 0.9 1
8
 1 0 0 1 0 0 1 1
8
 1 0 0 1 0.6 0 0.4 1
8
 1 0 0 1 0.5 0 0.5 1
8
 1 0 0 1 0.4 0 0.6 1
8
 1 0 0 1 0.9 0 0.1 1
8
 1 0 0 1 0.5 0 0.5 1
8
 1 0 0 1 0.9 0 0.1 1
8
 1 0 0 1 0 0 1 1
8
 1 0 0 1 0 0 1 1
8
 1 0 0 1 0 0 1 1
8
 1 0 0 1 0.4 0 0.6 1
8
 1 0 0 1 0 0 1 1
8
 1 0 0 1 0.09 0 0.91 1
8
 1 0 0 1 0 0 1 1
8
 1 0 0 1 0.9 0 0.1 1
8
 1 0 0 1 0.5 0 0.5 1
8
 1 0 0 1 0 0 1 1
8
 1 0 0 1 0 0 1 1
8
 1 0 0 1 0 0 1 1
8
 1 0 0 1 0.9 0 0.1 1
8
 1 0 0 1 0 0 1 1
8
 1 0 0 1 0.9 0 0.1 1
8
 1 0 0 1 0 0 1 1
8
 1 0 0 1 0.05 0 0.95 1
8
 1 0 0 1 0.5 0 0.5 1
8
 1 0 0 1 0.5 0 0.5 1
8
 1 0 0 1 0.5 0 0.5 1
8
 1 0 0 1 0 0 1 1
8
 1 0 0 1 0.5 0 0.5 1
8
 1 0 0 1 0 0 1 1
8
 1 0 0 1 0.1 0 0.9 1
8
 1 0 0 1 0 0 1 1
8
 1 0 0 1 0.5 0 0.5 1
8
 1 0 0 1 0 0 1 1
8
 1 0 0 1 0 0 1 1
8
 1 0 0 1 0.9 0 0.1 1
8
 1 0 0 1 0.01 0 0.99 1
2
 0.03 1
2
 0.9995 0.0005
2
 0.9999 0.0001
2
 0.99995 5e-05
2
 0.999995 5e-06
2
 0.9999 0.0001
2
 0.99999 1e-05
2
 0.9998 0.0002
2
 0.99975 0.00025
2
 0.99999 1e-05
2
 0.99995 5e-05
2
 0.99999 1e-05
2
 0.9999 0.0001
2
 0.99975 0.00025
2
 0.9999 0.0001
2
 0.9999 0.0001
2
 0.9999 0.0001
2
 0.99989 0.00011
2
 0.999999 1e-06
2
 0.9999 0.0001
2
 0.9999 0.0001
2
 0.9999 0.0001
2
 0.99998 2e-05
2
 0.99999 1e-05
2
 0.9999 0.0001
2
 0.99999 1e-05
2
 0.998 0.002
2
 0.99995 5e-05
2
 0.99974 0.00026
2
 0.999998 2e-06
2
 0.99989 0.00011
2
 0.9999 0.0001
2
 0.99995 5e-05
2
 0.99996 4e-05
2
 1 1e-07
2
 0.99981 0.00019
2
 0.99998 2e-05
2
 0.9999 0.0001
2
 0.9999 0.0001
2
 0.9999 0.0001
2
 0.9999 0.0001
2
 0.99992 8e-05
2
 0.9999 0.0001
2
 0.99999 1e-05
2
 0.9996 0.0004
2
 1 1e-07
2
 0.99996 4e-05
2
 0.9999 0.0001
2
 0.99995 5e-05
2
 0.9995 0.0005
2
 0.99995 5e-05
2
 0.999973 2.7e-05
2
 0.99999 1e-05
2
 0.99999 1e-05
2
 0.9999 0.0001
2
 0.9999 0.0001
2
 0.99999 1e-05
2
 0.99982 0.00018
2
 0.999999 1e-06
2
 0.9999 0.0001
2
 0.99985 0.00015
2
 0.9999 0.0001
2
 0.99995 5e-05
2
 0.9999 0.0001
2
 0.99985 0.00015
2
 0.9996 0.0004
2
 0.99995 5e-05
2
 0.99998 2e-05
2
 0.99999 1e-05
2
 0.9999 0.0001
2
 0.9998 0.0002
2
 0.9999 0.0001
2
 0.9995 0.0005
2
 0.99999 1e-05
2
 0.9995 0.0005
2
 0.9998 0.0002
2
 0.9991 0.0009
2
 0.9998 0.0002
2
 0.99995 5e-05
2
 0.9998 0.0002
2
 0.9998 0.0002
2
 0.9994 0.0006
2
 0.99996 4e-05
2
 0.9999 0.0001
2
 0.99999 1e-05
2
 0.99998 2e-05
2
 0.9999 0.0001
2
 0.9995 0.0005
2
 0.9999 0.0001
2
 0.99998 2e-05
2
 0.9999 0.0001
2
 0.9997 0.0003
2
 0.99998 2e-05
2
 0.99984 0.00016
2
 0.99993 7e-05
2
 0.99989 0.00011
2
 0.9996 0.0004
2
 0.99997 3e-05
2
 0.999 0.001
2
 0.9999 0.0001
2
 1 1e-07
2
 0.996 0.004
2
 0.9999 0.0001
2
 0.9999 0.0001
2
 0.9999 0.0001
2
 0.99998 2e-05
2
 0.99995 5e-05
2
 0.9965 0.0035
2
 0.9999 0.0001
2
 0.9928 0.0072
2
 0.99996 4e-05
2
 0.9999 0.0001
2
 0.99996 4e-05
2
 0.99985 0.00015
2
 0.9999 0.0001
2
 0.9999 0.0001
2
 0.9999 0.0001
2
 0.999977 2.291e-05
2
 0.9996 0.0004
2
 0.996 0.004
2
 0.99989 0.00011
2
 0.9999 0.0001
2
 0.99995 5e-05
2
 0.999 0.001
2
 0.99975 0.00025
2
 0.9988 0.0012
2
 0.99995 5e-05
2
 0.9999 0.0001
2
 0.9985 0.0015
2
 0.99987 0.00013
2
 0.9995 0.0005
2
 0.99995 5e-05
2
 0.99995 5e-05
2
 0.99999 1e-05
2
 0.9999 0.0001
2
 0.99998 2e-05
2
 0.9998 0.0002
2
 1 1.2e-07
2
 0.99996 4e-05
2
 0.9999 0.0001
2
 0.99995 5e-05
2
 0.9999 0.0001
2
 0.99998 2e-05
2
 0.9999 0.0001
2
 0.99999 1e-05
2
 0.9999 0.0001
2
 0.9999 0.0001
2
 0.999996 4e-06
2
 0.9995 0.0005
2
 1 1.6e-07
2
 0.9999 0.0001
2
 0.9999 0.0001
2
 0.9999 0.0001
2
 0.999907 9.332e-05
2
 0.9999 0.0001
2
 0.9994 0.0006
2
 0.9999 0.0001
2
 0.999969 3.12e-05
2
 0.999 0.001
2
 0.99995 5e-05
2
 0.999992 8e-06
2
 0.99975 0.00025
2
 0.9999 0.0001
2
 0.99975 0.00025
2
 0.9999 0.0001
2
 0.99764 0.00236
2
 0.99999 1e-05
2
 0.9999 0.0001
2
 0.9999 0.0001
2
 0.99999 1e-05
2
 0.9998 0.0002
2
 0.9999 0.0001
2
 0.99998 2e-05
2
 0.9999 0.0001
2
 0.9999 0.0001
2
 0.9995 0.0005
2
 0.9995 0.0005
2
 0.99991 9e-05
2
 0.99991 9e-05
2
 0.9999 0.0001
2
 0.9999 0.0001
2
 0.99995 5e-05
2
 0.99996 4e-05
2
 0.99997 3e-05
2
 0.99991 9e-05
2
 0.9985 0.0015
2
 0.9995 0.0005
2
 0.99995 5e-05
2
 0.99994 6e-05
2
 0.9998 0.0002
2
 0.9998 0.0002
2
 0.9999 0.0001
2
 0.9999 0.0001
2
 0.9999 0.0001
2
 0.99997 3e-05
2
 0.99997 3e-05
2
 0.9999 0.0001
2
 1 1e-07
2
 0.99992 8e-05
2
 0.9995 0.0005
2
 0.99989 0.00011
2
 0.9999 0.0001
2
 0.9996 0.0004
2
 0.999999 1e-06
2
 0.9999 0.0001
2
 0.999 0.001
2
 0.9999 0.0001
2
 0.999 0.001
2
 0.99997 3e-05
2
 0.9999 0.0001
2
 0.99999 1e-05
2
 0.9999 0.0001
2
 0.99996 4e-05
2
 0.9999 0.0001
2
 1 1e-07
2
 0.9998 0.0002
2
 0.99997 3e-05
2
 0.99998 2e-05
2
 0.9999 0.0001
2
 0.99993 7e-05
1
 1

